
Gurobi 11.0.2 (linux64) logging started Tue 03 Dec 2024 09:00:56 AM CET

Set parameter LogFile to value "./res/knapPI_11_20_1000/knapPI_11_20_1000_66/grb_dom.log"
Set parameter Presolve to value 0
Set parameter Aggregate to value 0
Set parameter Heuristics to value 0
Set parameter LPWarmStart to value 0
Set parameter NLPHeur to value 0
Set parameter PreDepRow to value 0
Set parameter PreDual to value 0
Set parameter RINS to value 0
Set parameter Symmetry to value 0
Set parameter NodeLimit to value 1
Set parameter Threads to value 1

Gurobi 11.0.2 (linux64) logging started Tue 03 Dec 2024 09:00:56 AM CET

Set parameter LogFile to value "./res/knapPI_11_20_1000/knapPI_11_20_1000_66/grb_dom.log"
Set parameter NLPHeur to value 0
Set parameter LPWarmStart to value 0
Set parameter PreDepRow to value 0
Set parameter Symmetry to value 0
Set parameter Presolve to value 0
Gurobi Optimizer version 11.0.2 build v11.0.2rc0 (linux64 - "Pop!_OS 20.04 LTS")

CPU model: Intel(R) Core(TM) i7-8650U CPU @ 1.90GHz, instruction set [SSE2|AVX|AVX2]
Thread count: 4 physical cores, 4 logical processors, using up to 1 threads

Optimize a model with 742 rows, 20 columns and 3925 nonzeros
Model fingerprint: 0x0b35b09e
Variable types: 0 continuous, 20 integer (20 binary)
Coefficient statistics:
  Matrix range     [1e+00, 2e+03]
  Objective range  [8e+01, 2e+03]
  Bounds range     [0e+00, 0e+00]
  RHS range        [7e+03, 7e+03]
Variable types: 0 continuous, 20 integer (20 binary)

Root relaxation: objective 8.258333e+03, 5 iterations, 0.00 seconds (0.00 work units)

    Nodes    |    Current Node    |     Objective Bounds      |     Work
 Expl Unexpl |  Obj  Depth IntInf | Incumbent    BestBd   Gap | It/Node Time

     0     0 8258.33333    0    5          - 8258.33333      -     -    0s
     0     0 8258.33333    0    4          - 8258.33333      -     -    0s
     0     0 8258.33333    0    3          - 8258.33333      -     -    0s
     0     0 8258.33333    0    2          - 8258.33333      -     -    0s
     0     0 8258.33333    0    3          - 8258.33333      -     -    0s
     0     0 8258.33333    0    3          - 8258.33333      -     -    0s
     0     0 8258.33333    0    3          - 8258.33333      -     -    0s
     0     0 8258.33333    0    2          - 8258.33333      -     -    0s
     0     0 8258.33333    0    1          - 8258.33333      -     -    0s
     0     0 8258.33333    0    5          - 8258.33333      -     -    0s
     0     0 8258.33333    0    4          - 8258.33333      -     -    0s
     0     0 8256.00910    0    5          - 8256.00910      -     -    0s
     0     0 8253.22003    0    4          - 8253.22003      -     -    0s
     0     0 8253.22003    0    4          - 8253.22003      -     -    0s
     0     0 8253.22003    0    6          - 8253.22003      -     -    0s
     0     2 8253.22003    0    6          - 8253.22003      -     -    0s

Cutting planes:
  Cover: 3
  MIR: 1
  StrongCG: 1

Explored 1 nodes (38 simplex iterations) in 0.21 seconds (0.06 work units)
Thread count was 1 (of 4 available processors)

Solution count 0

Node limit reached
Best objective -, best bound 8.252000000000e+03, gap -

User-callback calls 271, time in user-callback 0.00 sec
opt = false
obj = 8253.22
nb_dom_cuts = 741
solved_time = 0.2061
opt_val = 8196.0
